objective value:                                   -3
t_n_25                                              1 	(obj:-1)
t_n_1764                                            1 	(obj:-1)
t_n_1950                                            1 	(obj:-1)
